unknown
(model
; cardinality of BoundSet is 6
(declare-sort BoundSet 0)
; rep: @uc_BoundSet_0
; rep: @uc_BoundSet_1
; rep: @uc_BoundSet_2
; rep: @uc_BoundSet_3
; rep: @uc_BoundSet_4
; rep: @uc_BoundSet_5
; cardinality of UnboundSet is 1
(declare-sort UnboundSet 0)
(declare-fun groundTerm_7 () UnboundSet)
(define-fun IsInBlackTrunks ((BOUND_VARIABLE_581 BoundSet)) Bool true)
(define-fun IsBouncing ((BOUND_VARIABLE_581 BoundSet)) Bool true)
(define-fun IsWet ((BOUND_VARIABLE_581 BoundSet)) Bool true)
(define-fun IsPlaying ((BOUND_VARIABLE_581 BoundSet)) Bool true)
(define-fun IsOnTrampolines ((BOUND_VARIABLE_581 BoundSet)) Bool true)
(define-fun IsOutdoors ((BOUND_VARIABLE_581 BoundSet)) Bool false)
)
sat
(model
; cardinality of BoundSet is 1
(declare-sort BoundSet 0)
; rep: @uc_BoundSet_0
; cardinality of UnboundSet is 1
(declare-sort UnboundSet 0)
(declare-fun groundTerm_12 () UnboundSet)
(define-fun IsInBlackTrunks ((BOUND_VARIABLE_643 BoundSet)) Bool true)
(define-fun IsBouncing ((BOUND_VARIABLE_643 BoundSet)) Bool true)
(define-fun IsWet ((BOUND_VARIABLE_643 BoundSet)) Bool true)
(define-fun IsPlaying ((BOUND_VARIABLE_643 BoundSet)) Bool true)
(define-fun IsOnTrampolines ((BOUND_VARIABLE_643 BoundSet)) Bool true)
(define-fun IsOutdoors ((BOUND_VARIABLE_643 BoundSet)) Bool false)
)
